<number of tasks>
20

<cycle time>
1000

<order strength>
0,5


<task times>
1 121
2 150
3 206
4 42
5 136
6 151
7 259
8 142
9 207
10 111
11 387
12 514
13 146
14 145
15 496
16 32
17 55
18 220
19 93
20 87

<precedence relations>
1,3
1,4
1,5
1,6
2,4
2,5
2,6
3,7
4,8
4,9
4,10
4,11
5,9
5,10
5,11
6,9
6,10
7,13
8,12
9,13
9,14
11,13
11,14
12,16
13,17
13,18
14,15
14,17
15,19
16,20

<end>
